100
1000
132
131
130
130
130
130
129
129
129
129
128
127
127
127
127
127
126
125
125
125
124
124
123
122
122
120
120
120
120
120
120
120
120
119
119
119
118
118
118
118
118
117
117
116
116
115
115
115
114
114
113
113
112
112
112
112
112
111
111
111
110
110
109
108
108
108
108
108
106
106
106
106
105
104
104
104
104
104
103
103
103
102
102
101
101
100
99
99
98
98
97
95
94
94
93
93
93
92
91
90
